GOF statistics for synthvisium_mean30000,sd8000
chisq	chisqpvalue	ks	cvm	ad	bic	aic
norm	40.7136	0.0332	0.0265	0.1464	0.9068	23209.4513	23199.4199
pois	Inf	0	0.4892	87.2844	Inf	2516817.6528	2516812.6371
nbinom	70.1712	0	0.0513	0.7625	4.4896	23298.1869	23288.1554
ks = Kolomogrov-Smirnov statistic, cvm=Cramer-von Mises statistic, ad=Anderson-Darling statistic,
                       bic=Bayesian Information Criterion, aic=Akaike's Information criterion
ks, cvm, and ad are recommended for continuous data, while chisq is for discrete ones
